5512.84
69 80 97 90 89 2 3 38 48 47 27 21 92 87 93 10 96 79 76 72 4 81 59 14 37 42 40 0 22 31 39 25 36 82 74 84 19 9 34 5 61 75 63 86 73 65 54 64 56 30 6 98 16 67 68 23 46 11 57 49 62 88 33 35 29 60 50 66 24 32 1 83 71 51 55 70 58 26 28 18 17 12 45 43 15 52 53 91 20 13 44 41 7 85 77 94 8 95 78 
